NAME : traveling-santa-2018-prime-paths.30350.tour
COMMENT : Length = 30350
COMMENT : Found by LKH [Keld Helsgaun] Sun Jun 12 20:00:34 2022
TYPE : TOUR
DIMENSION : 100
TOUR_SECTION
1
20
87
33
44
91
8
23
27
47
26
22
64
25
10
51
35
46
45
85
66
94
96
42
5
3
67
98
4
74
40
68
7
14
97
55
88
58
50
69
60
100
11
72
73
54
99
71
2
34
41
89
79
21
77
37
57
52
29
9
28
93
78
82
38
80
17
13
12
6
16
15
43
81
56
30
63
84
53
19
83
62
18
39
90
24
75
49
92
86
65
95
36
70
32
59
61
76
48
31
-1
EOF
